Instance: E151-12b.dat
Class:  1
150 --- number of customers (no depot)
12 --- number of vehicles
225 --- number of items
Capacity - height - width of vehicles
   200     40     20
Node - x - y - demand  Readytime Duetime
  0.00   35.00  35.00   0.00 0       551.00       
  1.00   41.00  49.00  10.00  75.00   93.00       
  2.00   35.00  17.00   7.00 257.00  273.00       
  3.00   55.00  45.00  13.00  85.00  100.00       
  4.00   55.00  20.00  19.00  10.00   50.00       
  5.00   15.00  30.00  26.00 102.00  118.00       
  6.00   25.00  30.00   3.00 311.00  326.00       
  7.00   20.00  50.00   5.00 264.00  279.00       
  8.00   10.00  43.00   9.00 402.00  411.00       
  9.00   55.00  60.00  16.00 120.00  130.00       
 10.00   30.00  60.00  16.00 111.00  116.00       
 11.00   20.00  65.00  12.00  40.00   50.00       
 12.00   50.00  35.00  19.00 301.00  311.00       
 13.00   30.00  25.00  23.00  36.00   53.00       
 14.00   15.00  10.00  20.00 332.00  338.00       
 15.00   30.00   5.00   8.00 101.00  119.00       
 16.00   10.00  20.00  19.00 217.00  235.00       
 17.00    5.00  30.00   2.00 283.00  297.00       
 18.00   20.00  40.00  12.00 204.00  220.00       
 19.00   15.00  60.00  17.00 445.00  454.00       
 20.00   45.00  65.00   9.00 441.00  459.00       
 21.00   45.00  20.00  11.00 426.00  444.00       
 22.00   45.00  10.00  18.00 172.00  192.00       
 23.00   55.00   5.00  29.00 257.00  265.00       
 24.00   65.00  35.00   3.00 345.00  356.00       
 25.00   65.00  20.00   6.00 340.00  355.00       
 26.00   45.00  30.00  17.00 376.00  386.00       
 27.00   35.00  40.00  16.00 433.00  441.00       
 28.00   41.00  37.00  16.00 368.00  377.00       
 29.00   64.00  42.00   9.00  35.00   50.00       
 30.00   40.00  60.00  21.00 401.00  412.00       
 31.00   31.00  52.00  27.00 190.00  205.00       
 32.00   35.00  69.00  23.00 292.00  305.00       
 33.00   53.00  52.00  11.00 156.00  173.00       
 34.00   65.00  55.00  14.00 398.00  409.00       
 35.00   63.00  65.00   8.00 261.00  279.00       
 36.00    2.00  60.00   5.00 139.00  154.00       
 37.00   20.00  20.00   8.00 365.00  376.00       
 38.00    5.00   5.00  16.00 178.00  196.00       
 39.00   60.00  12.00  31.00 270.00  278.00       
 40.00   40.00  25.00   9.00  56.00   68.00       
 41.00   42.00   7.00   5.00  27.00   50.00       
 42.00   24.00  12.00   5.00 149.00  158.00       
 43.00   23.00   3.00   7.00 333.00  342.00       
 44.00   11.00  14.00  18.00 125.00  145.00       
 45.00    6.00  38.00  16.00 109.00  121.00       
 46.00    2.00  48.00   1.00 217.00  222.00       
 47.00    8.00  56.00  27.00 156.00  176.00       
 48.00   13.00  52.00  36.00 154.00  167.00       
 49.00    6.00  68.00  30.00  66.00   79.00       
 50.00   47.00  47.00  13.00 113.00  119.00       
 51.00   49.00  58.00  10.00  51.00   56.00       
 52.00   27.00  43.00   9.00 148.00  154.00       
 53.00   37.00  31.00  14.00 433.00  449.00       
 54.00   57.00  29.00  18.00 459.00  464.00       
 55.00   63.00  23.00   2.00 149.00  157.00       
 56.00   53.00  12.00   6.00 366.00  386.00       
 57.00   32.00  12.00   7.00  65.00   80.00       
 58.00   36.00  26.00  18.00 101.00  118.00       
 59.00   21.00  24.00  28.00   9.00   50.00       
 60.00   17.00  34.00   3.00 406.00  421.00       
 61.00   12.00  24.00  13.00 305.00  322.00       
 62.00   24.00  58.00  19.00 259.00  279.00       
 63.00   27.00  69.00  10.00 437.00  456.00       
 64.00   15.00  77.00   9.00 292.00  308.00       
 65.00   62.00  77.00  20.00 282.00  293.00       
 66.00   49.00  73.00  25.00 293.00  311.00       
 67.00   67.00   5.00  25.00  65.00   76.00       
 68.00   56.00  39.00  36.00 339.00  347.00       
 69.00   37.00  47.00   6.00 427.00  442.00       
 70.00   37.00  56.00   5.00 296.00  305.00       
 71.00   57.00  68.00  15.00 222.00  229.00       
 72.00   47.00  16.00  25.00 300.00  311.00       
 73.00   44.00  17.00   9.00 350.00  365.00       
 74.00   46.00  13.00   8.00 355.00  365.00       
 75.00   49.00  11.00  18.00   6.00   50.00       
 76.00   49.00  42.00  13.00 380.00  399.00       
 77.00   53.00  43.00  14.00 368.00  386.00       
 78.00   61.00  52.00   3.00 269.00  279.00       
 79.00   57.00  48.00  23.00 124.00  141.00       
 80.00   56.00  37.00   6.00 276.00  288.00       
 81.00   55.00  54.00  26.00 103.00  108.00       
 82.00   15.00  47.00  16.00 444.00  449.00       
 83.00   14.00  37.00  11.00 427.00  438.00       
 84.00   11.00  31.00   7.00 358.00  371.00       
 85.00   16.00  22.00  41.00 262.00  280.00       
 86.00    4.00  18.00  35.00  16.00   50.00       
 87.00   28.00  18.00  26.00 392.00  404.00       
 88.00   26.00  52.00   9.00 168.00  186.00       
 89.00   26.00  35.00  15.00 257.00  266.00       
 90.00   31.00  67.00   3.00 390.00  410.00       
 91.00   15.00  19.00   1.00 211.00  229.00       
 92.00   22.00  22.00   2.00 375.00  387.00       
 93.00   18.00  24.00  22.00 184.00  201.00       
 94.00   26.00  27.00  27.00 459.00  464.00       
 95.00   25.00  24.00  20.00 169.00  181.00       
 96.00   22.00  27.00  11.00  90.00   97.00       
 97.00   25.00  21.00  12.00  97.00  102.00       
 98.00   19.00  21.00  10.00 299.00  315.00       
 99.00   20.00  26.00   9.00 130.00  141.00       
100.00   18.00  18.00  17.00  56.00   70.00       
101.00   37.00  52.00   7.00  26.00   50.00       
102.00   49.00  49.00  30.00  27.00   50.00       
103.00   52.00  64.00  16.00 153.00  172.00       
104.00   20.00  26.00   9.00 324.00  333.00       
105.00   40.00  30.00  21.00 416.00  435.00       
106.00   21.00  47.00  15.00  75.00   81.00       
107.00   17.00  63.00  19.00 322.00  338.00       
108.00   31.00  62.00  23.00 438.00  448.00       
109.00   52.00  33.00  11.00 246.00  256.00       
110.00   51.00  21.00   5.00 254.00  262.00       
111.00   42.00  41.00  19.00 190.00  198.00       
112.00   31.00  32.00  29.00 143.00  159.00       
113.00    5.00  25.00  23.00 310.00  319.00       
114.00   12.00  42.00  21.00 456.00  466.00       
115.00   36.00  16.00  10.00 248.00  263.00       
116.00   52.00  41.00  15.00 391.00  402.00       
117.00   27.00  23.00   3.00 384.00  394.00       
118.00   17.00  33.00  41.00 355.00  369.00       
119.00   13.00  13.00   9.00 407.00  422.00       
120.00   57.00  58.00  28.00 132.00  142.00       
121.00   62.00  42.00   8.00  71.00   82.00       
122.00   42.00  57.00   8.00 418.00  434.00       
123.00   16.00  57.00  16.00 302.00  313.00       
124.00    8.00  52.00  10.00 372.00  391.00       
125.00    7.00  38.00  28.00 265.00  284.00       
126.00   27.00  68.00   7.00  80.00   99.00       
127.00   30.00  48.00  15.00 288.00  302.00       
128.00   43.00  67.00  14.00 418.00  424.00       
129.00   58.00  48.00   6.00 254.00  273.00       
130.00   58.00  27.00  19.00 396.00  415.00       
131.00   37.00  69.00  11.00 321.00  330.00       
132.00   38.00  46.00  12.00 255.00  261.00       
133.00   46.00  10.00  23.00 340.00  360.00       
134.00   61.00  33.00  26.00 242.00  250.00       
135.00   62.00  63.00  17.00 254.00  261.00       
136.00   63.00  69.00   6.00 336.00  348.00       
137.00   32.00  22.00   9.00 146.00  158.00       
138.00   45.00  35.00  15.00 109.00  121.00       
139.00   59.00  15.00  14.00 358.00  375.00       
140.00    5.00   6.00   7.00 222.00  237.00       
141.00   10.00  17.00  27.00 147.00  162.00       
142.00   21.00  10.00  13.00  30.00   50.00       
143.00    5.00  64.00  11.00 173.00  187.00       
144.00   30.00  15.00  16.00 346.00  364.00       
145.00   39.00  10.00  10.00 285.00  305.00       
146.00   32.00  39.00   5.00 443.00  448.00       
147.00   25.00  32.00  25.00 117.00  127.00       
148.00   25.00  55.00  17.00  99.00  106.00       
149.00   48.00  28.00  18.00 445.00  457.00       
150.00   56.00  37.00  10.00 353.00  359.00
Node - number of items - h - w for each item
    0   0
    1   1   25    4
    2   1   19    3
    3   1   17    9
    4   1    7   13
    5   1   10    7
    6   1   31    4
    7   2    5   15    7   13
    8   1   16    5
    9   2    6   11    9    8
   10   1    5   16
   11   1   24    2
   12   2    6   17   19    3
   13   2    5    8   26    4
   14   2    5   14   12    8
   15   2    7   15   13    6
   16   2    5   18    4   15
   17   2    9    9   13    8
   18   1    6   16
   19   1   36    4
   20   2   12    5   27    3
   21   1    7   10
   22   1    5   15
   23   2    8   14   20    3
   24   2   17    6   32    3
   25   1    6    9
   26   2   16   10    6   10
   27   1   29    2
   28   1    8   15
   29   2   12    6   31    3
   30   2    6   13   27    2
   31   2   17    5   33    2
   32   2    7   12   34    4
   33   1    5   14
   34   2    9    5   26    3
   35   1   22    3
   36   2   14    8   10    6
   37   1   25    3
   38   1   35    3
   39   2   20    4   22    3
   40   1   21    3
   41   1   18    4
   42   2    9    9    7    9
   43   1   10    7
   44   1   20    3
   45   2    6   15    5   13
   46   1   27    3
   47   1   31    3
   48   2   19    5   18    5
   49   1   20    9
   50   2    8    9   33    3
   51   1   19    3
   52   1   18    8
   53   2   32    4   16    4
   54   1   10    8
   55   1    5   10
   56   1    7   17
   57   1   22    3
   58   2   18    9   14    9
   59   1   17    3
   60   1   29    3
   61   2   13    5   16    4
   62   1   26    4
   63   2    6   10   33    3
   64   1   30    4
   65   2   13    6   24    4
   66   1    8    8
   67   2   18    4   31    2
   68   2    9    9   21    3
   69   1   19    6
   70   1   17    8
   71   1    7   13
   72   1   23    3
   73   2    6   10   11    8
   74   2   13    6   20    4
   75   2    7   13   18    4
   76   1   33    2
   77   2    7   15   16    2
   78   2   35    4   30    4
   79   1   24    4
   80   2   11    7   24    3
   81   2    4   15   13    8
   82   2   19    7   19    4
   83   1    4   12
   84   2   14    8   29    4
   85   2    5   18    4   15
   86   2    6   16   24    3
   87   1   13    7
   88   2   16    7   34    4
   89   2    6   15   20    5
   90   1    5   13
   91   1   19    9
   92   2    6   14   26    3
   93   1   24    3
   94   1   20    4
   95   1   18   10
   96   1   30    4
   97   1    5   10
   98   2    4   10   13    8
   99   1   17    4
  100   1    5    9
  101   2   13    8   34    3
  102   2   19    9    8    8
  103   1   33    2
  104   1    6   14
  105   2    5   11    8    4
  106   2    9    8   17    4
  107   2    5   18   26    2
  108   1   29    3
  109   1   11    9
  110   2   16    5   17    4
  111   1   28    2
  112   1   33    3
  113   2    8   13   34    3
  114   2    8    9   11    7
  115   2    7   16    8   13
  116   2   14   10   18    3
  117   1    5   18
  118   1   12    8
  119   1   22    2
  120   2   18    9   18    6
  121   1   20    4
  122   1    6   16
  123   1    5    9
  124   2    5   11   10    8
  125   2   11    9   35    3
  126   2   12    6   16    5
  127   2   18   10   21    4
  128   2   18    9    8    9
  129   2   26    3   22    3
  130   2   15    8   19    4
  131   1    8   18
  132   2    6   11   33    3
  133   2   32    3   29    3
  134   2    4   11   14    8
  135   2    7   12    5   12
  136   1   24    3
  137   2   13    8   26    3
  138   1   12    5
  139   2    7   11    6   10
  140   2    7   17    4   15
  141   1   29    2
  142   2    6   12    6    8
  143   2    5   15    8   12
  144   1   10    7
  145   1   13    7
  146   1    7   11
  147   1    4   15
  148   2    5   12   23    4
  149   2    6    9   22    4
  150   2   10    9   13    5
